solution status: optimal solution found
objective value:                     143688.966124202
d11(0,0)                                            1 	(obj:0)
d11(1,1)                                            1 	(obj:0)
d11(2,3)                                            1 	(obj:0)
d11(2,5)                                            1 	(obj:0)
d11(5,31)                                           1 	(obj:0)
d11(5,32)                                           1 	(obj:0)
d11(5,33)                                           1 	(obj:0)
d11(5,35)                                           1 	(obj:0)
d11(5,36)                                           1 	(obj:0)
d11(5,37)                                           1 	(obj:0)
d11(5,38)                                           1 	(obj:0)
d11(5,39)                                           1 	(obj:0)
d11(5,41)                                           1 	(obj:0)
d11(5,42)                                           1 	(obj:0)
d11(5,43)                                           1 	(obj:0)
d11(5,45)                                           1 	(obj:0)
d11(5,46)                                           1 	(obj:0)
d11(5,47)                                           1 	(obj:0)
d11(5,49)                                           1 	(obj:0)
d11(5,50)                                           1 	(obj:0)
d11(5,51)                                           1 	(obj:0)
d11(5,52)                                           1 	(obj:0)
d11(5,53)                                           1 	(obj:0)
d11(5,55)                                           1 	(obj:0)
d11(5,56)                                           1 	(obj:0)
d11(5,57)                                           1 	(obj:0)
d11(5,58)                                           1 	(obj:0)
d11(5,59)                                           1 	(obj:0)
d11(5,60)                                           1 	(obj:0)
d11(5,61)                                           1 	(obj:0)
d12(2,4)                                            1 	(obj:0)
d12(2,6)                                            1 	(obj:0)
d12(3,8)                                            1 	(obj:0)
d12(3,10)                                           1 	(obj:0)
d12(3,12)                                           1 	(obj:0)
d12(3,14)                                           1 	(obj:0)
d12(4,15)                                           1 	(obj:0)
d12(4,16)                                           1 	(obj:0)
d12(4,17)                                           1 	(obj:0)
d12(4,18)                                           1 	(obj:0)
d12(4,19)                                           1 	(obj:0)
d12(4,20)                                           1 	(obj:0)
d12(4,21)                                           1 	(obj:0)
d12(4,22)                                           1 	(obj:0)
d12(4,23)                                           1 	(obj:0)
d12(4,24)                                           1 	(obj:0)
d12(4,25)                                           1 	(obj:0)
d12(4,26)                                           1 	(obj:0)
d12(4,27)                                           1 	(obj:0)
d12(4,28)                                           1 	(obj:0)
d12(4,29)                                           1 	(obj:0)
d12(4,30)                                           1 	(obj:0)
d21(2,3)                                            1 	(obj:0)
d21(3,7)                                            1 	(obj:0)
d21(5,31)                                           1 	(obj:0)
d21(5,35)                                           1 	(obj:0)
d21(5,39)                                           1 	(obj:0)
d22(4,22)                                           1 	(obj:0)
d22(4,26)                                           1 	(obj:0)
d22(4,28)                                           1 	(obj:0)
d22(4,29)                                           1 	(obj:0)
d22(4,30)                                           1 	(obj:0)
d22(5,46)                                           1 	(obj:0)
d22(5,54)                                           1 	(obj:0)
d22(5,58)                                           1 	(obj:0)
d22(5,60)                                           1 	(obj:0)
d22(5,61)                                           1 	(obj:0)
d22(5,62)                                           1 	(obj:0)
STE(1,1)                              2867.9381903922 	(obj:0)
STE(0,0)                                         4725 	(obj:0)
STE(1,2)                                         4347 	(obj:0)
STE(2,3)                              2489.9381903922 	(obj:0)
STE(2,4)                             3806.15227626867 	(obj:0)
STE(2,5)                              3969.0000000004 	(obj:0)
STE(2,6)                             5285.21408587647 	(obj:0)
STE(3,7)                              2111.9381903922 	(obj:0)
STE(3,8)                             3428.15227626871 	(obj:0)
STE(3,9)                             3428.15227626867 	(obj:0)
STE(3,10)                            4744.36636214517 	(obj:0)
STE(3,11)                             3591.0000000004 	(obj:0)
STE(3,12)                             4907.2140858769 	(obj:0)
STE(3,13)                            4907.21408587647 	(obj:0)
STE(3,14)                            6223.42817175297 	(obj:0)
STE(4,15)                            3453.44623533888 	(obj:0)
STE(4,16)                            4871.24989888882 	(obj:0)
STE(4,17)                            4769.66032121538 	(obj:0)
STE(4,18)                            6187.46398476532 	(obj:0)
STE(4,19)                            4769.66032121535 	(obj:0)
STE(4,20)                            6187.46398476529 	(obj:0)
STE(4,21)                            6085.87440709185 	(obj:0)
STE(4,22)                            7503.67807064179 	(obj:0)
STE(4,23)                            4932.50804494708 	(obj:0)
STE(4,24)                            6350.31170849702 	(obj:0)
STE(4,25)                            6248.72213082358 	(obj:0)
STE(4,26)                            7666.52579437352 	(obj:0)
STE(4,27)                            6248.72213082315 	(obj:0)
STE(4,28)                            7666.52579437309 	(obj:0)
STE(4,29)                            7564.93621669965 	(obj:0)
STE(4,30)                            8982.73988024959 	(obj:0)
STE(5,31)                            1417.19633645006 	(obj:0)
STE(5,32)                            3075.44623533888 	(obj:0)
STE(5,33)                                        2835 	(obj:0)
STE(5,34)                            4493.24989888882 	(obj:0)
STE(5,35)                            2733.41042232657 	(obj:0)
STE(5,36)                            4391.66032121538 	(obj:0)
STE(5,37)                            4151.21408587651 	(obj:0)
STE(5,38)                            5809.46398476532 	(obj:0)
STE(5,39)                            2733.41042232653 	(obj:0)
STE(5,40)                            4391.66032121535 	(obj:0)
STE(5,41)                            4151.21408587647 	(obj:0)
STE(5,42)                            5809.46398476529 	(obj:0)
STE(5,43)                            4049.62450820304 	(obj:0)
STE(5,44)                            5707.87440709185 	(obj:0)
STE(5,45)                            5467.42817175298 	(obj:0)
STE(5,46)                            7125.67807064179 	(obj:0)
STE(5,47)                            2896.25814605826 	(obj:0)
STE(5,48)                            4554.50804494708 	(obj:0)
STE(5,49)                             4314.0618096082 	(obj:0)
STE(5,50)                            5972.31170849702 	(obj:0)
STE(5,51)                            4212.47223193476 	(obj:0)
STE(5,52)                            5870.72213082358 	(obj:0)
STE(5,53)                             5630.2758954847 	(obj:0)
STE(5,54)                            7288.52579437352 	(obj:0)
STE(5,55)                            4212.47223193433 	(obj:0)
STE(5,56)                            5870.72213082315 	(obj:0)
STE(5,57)                            5630.27589548427 	(obj:0)
STE(5,58)                            7288.52579437309 	(obj:0)
STE(5,59)                            5528.68631781083 	(obj:0)
STE(5,60)                            7186.93621669965 	(obj:0)
STE(5,61)                            6946.48998136077 	(obj:0)
STE(5,62)                            8604.73988024959 	(obj:0)
y1(5,39)                             1492.42490899994 	(obj:0)
y1(5,41)                             1492.42490899994 	(obj:0)
y1(5,43)                             1492.42490899994 	(obj:0)
y1(5,45)                             1492.42490899994 	(obj:0)
y1(5,47)                             1492.42490899994 	(obj:0)
y1(5,49)                             1492.42490899994 	(obj:0)
y1(5,51)                             1492.42490899994 	(obj:0)
y1(5,53)                             1492.42490899994 	(obj:0)
y1(5,55)                             1492.42490899994 	(obj:0)
y1(5,57)                             1492.42490899994 	(obj:0)
y1(5,59)                             1492.42490899994 	(obj:0)
y1(5,61)                             1492.42490899994 	(obj:0)
AVE(1)                                   3216.9117036 	(obj:0)
WB(2)                                    3366.1541945 	(obj:0)
AVE(2)                                   3366.1541945 	(obj:0)
WB(3)                                    3515.3966854 	(obj:0)
AVE(3)                                   3515.3966854 	(obj:0)
WB(4)                                3515.39406545826 	(obj:0)
AVE(4)                               3515.39406545826 	(obj:0)
WB(5)                                3167.15385943327 	(obj:0)
AVE(5)                               3167.15385943327 	(obj:0)
WG(1)                                    3216.9117036 	(obj:10)
BG(1)                                814.820305223529 	(obj:10)
BG(2)                                2673.40993877555 	(obj:10)
BG(3)                                2673.40993877551 	(obj:10)
BG(4)                                794.052227093249 	(obj:10)
BG(5)                                4196.29249897957 	(obj:10)
y1(1,1)                              1331.15562864702 	(obj:0)
y1(5,31)                             1492.42490899994 	(obj:0)
y1(5,33)                             1492.42490899994 	(obj:0)
y1(5,35)                             1492.42490899994 	(obj:0)
y1(5,37)                             1492.42490899994 	(obj:0)
y2(2,4)                              1385.48851144891 	(obj:0)
y2(2,6)                              1385.48851144891 	(obj:0)
y2(3,8)                              1385.48851144895 	(obj:0)
y2(3,10)                             1385.48851144895 	(obj:0)
y2(3,12)                             1385.48851144895 	(obj:0)
y2(3,14)                             1385.48851144895 	(obj:0)
y2(4,15)                             1810.00846836492 	(obj:0)
y2(4,16)                             3302.43337736486 	(obj:0)
y2(4,17)                             1810.00846836492 	(obj:0)
y2(4,18)                             3302.43337736486 	(obj:0)
y2(4,19)                             1810.00846836492 	(obj:0)
y2(4,20)                             3302.43337736486 	(obj:0)
y2(4,21)                             1810.00846836492 	(obj:0)
y2(4,22)                             3302.43337736486 	(obj:0)
y2(4,23)                             1810.00846836492 	(obj:0)
y2(4,24)                             3302.43337736486 	(obj:0)
y2(4,25)                             1810.00846836492 	(obj:0)
y2(4,26)                             3302.43337736486 	(obj:0)
y2(4,27)                             1810.00846836492 	(obj:0)
y2(4,28)                             3302.43337736486 	(obj:0)
y2(4,29)                             1810.00846836492 	(obj:0)
y2(4,30)                             3302.43337736486 	(obj:0)
